NAME : 10_3_3_1_(20).dat
COMMENT : Henke, Speranza, Wäscher, 2015
TYPE : MCVRP
DIMENSION : 11
EDGE_WEIGHT_TYPE : DISTANCE_MATRIX
CAPACITY : 1000
VEHICLES : 3
PRODUCT TYPES : 3
COMPARTMENTS : 3
NODE_COORD_SECTION
1 50 50
2 17.39 77.41
3 9.05 72.77
4 54.38 32.32
5 49.17 4.21
6 58.02 90.39
7 51.67 3.07
8 58.85 72.14
9 5.54 22.52
10 74.81 46.32
11 56.06 0.28
DEMAND_SECTION
1 0 0 0
2 0 0 305
3 36 0 0
4 249 0 0
5 100 0 0
6 207 0 0
7 0 168 0
8 0 104 0
9 150 0 0
10 21 0 0
11 0 185 0
DEPOT_SECTION
1
EOF